Problem:    
Rows:       354
Columns:    129 (110 integer, 110 binary)
Non-zeros:  1125
Status:     INTEGER OPTIMAL
Objective:  value = 23.5151 (MINimum)

   No.   Row name        Activity     Lower bound   Upper bound
------ ------------    ------------- ------------- -------------
     1 r.5                         1             1             = 
     2 r.6                   23.5151             0               
     3 r.7                   23.5151      -993.044               
     4 r.8                   1023.52             0               
     5 r.9                  -992.535      -993.732               
     6 r.10                  23.5151             0               
     7 r.11                 -988.688      -995.136               
     8 r.12                  1023.52             0               
     9 r.13                 -987.312      -994.777               
    10 r.14                  1023.52             0               
    11 r.15                 -993.551       -994.84               
    12 r.16                  23.5151             0               
    13 r.17                   6.4487      -993.936               
    14 r.18                  23.5151             0               
    15 r.19                  23.5151      -995.114               
    16 r.20                  1023.52             0               
    17 r.21                 -976.485      -995.388               
    18 r.22                  1023.52             0               
    19 r.23                 -981.097      -994.747               
    20 r.24                  23.5151             0               
    21 r.25                  18.9029      -994.076               
    22 r.26                  1023.52             0               
    23 r.27                  -986.35      -992.798               
    24 r.28                  23.5151             0               
    25 r.29                  13.6503      -992.064               
    26 r.30                  1023.52             0               
    27 r.31                 -977.503      -996.406               
    28 r.32                  23.5151             0               
    29 r.33                  23.5151      -995.785               
    30 r.34                  23.5151             0               
    31 r.35                 -991.867      -993.064               
    32 r.36                  1023.52             0               
    33 r.37                 -981.097      -993.785               
    34 r.38                  1023.52             0               
    35 r.39                 -998.803      -998.803               
    36 r.40                  23.5151             0               
    37 r.41                    1.197      -997.812               
    38 r.42                        1             1             = 
    39 r.43                        1             1             = 
    40 r.44                        1             1             = 
    41 r.45                        1             1             = 
    42 r.46                        1             1             = 
    43 r.47                        1             1             = 
    44 r.48                        1             1             = 
    45 r.49                        1             1             = 
    46 r.50                        1             1             = 
    47 r.51                     1000             2               
    48 r.52                    -1000         -1001               
    49 r.53                  987.797      -995.136               
    50 r.54                        2             2               
    51 r.55                       -2         -1001               
    52 r.56                 -994.777      -994.777               
    53 r.57                     1001             2               
    54 r.58                    -1001         -1001               
    55 r.59                  1982.93       -994.84               
    56 r.60                     1001             2               
    57 r.61                    -1001         -1001               
    58 r.62                  1998.98      -993.936               
    59 r.63                     1000             2               
    60 r.64                    -1000         -1001               
    61 r.65                     2000      -995.114               
    62 r.66                        2             2               
    63 r.67                       -2         -1001               
    64 r.68                  -983.95      -995.388               
    65 r.69                     1001             2               
    66 r.70                    -1001         -1001               
    67 r.71                  1995.39      -994.747               
    68 r.72                     1001             2               
    69 r.73                    -1001         -1001               
    70 r.74                  2011.44      -994.076               
    71 r.75                     1001             2               
    72 r.76                    -1001         -1001               
    73 r.77                  1990.14      -992.798               
    74 r.78                     1001             2               
    75 r.79                    -1001         -1001               
    76 r.80                  2006.19      -992.064               
    77 r.81                     1001             2               
    78 r.82                    -1001         -1001               
    79 r.83                  1998.98      -996.406               
    80 r.84                     1001             2               
    81 r.85                    -1001         -1001               
    82 r.86                  2016.05      -995.785               
    83 r.87                     1000             2               
    84 r.88                    -1000         -1001               
    85 r.89                  984.618      -993.064               
    86 r.90                        2             2               
    87 r.91                       -2         -1001               
    88 r.92                 -988.562      -993.785               
    89 r.93                  22.3181      -993.044               
    90 r.94                 -993.732      -993.732               
    91 r.95                  22.3181      -993.044               
    92 r.96                 -993.732      -993.732               
    93 r.97                     1000             2               
    94 r.98                    -1000         -1001               
    95 r.99                   3012.2        6.9558               
    96 r.100                       2             2               
    97 r.101                      -2         -1001               
    98 r.102                 994.777        6.2676               
    99 r.103                -995.136      -995.136               
   100 r.104                -993.761      -994.777               
   101 r.105                -995.136      -995.136               
   102 r.106                -993.761      -994.777               
   103 r.107                    1000             2               
   104 r.108                   -1000         -1001               
   105 r.109                  3012.2      -995.114               
   106 r.110                       2             2               
   107 r.111                      -2         -1001               
   108 r.112                -989.173      -995.388               
   109 r.113                    1001             2               
   110 r.114                   -1001         -1001               
   111 r.115                 3007.59      -994.747               
   112 r.116                    1001             2               
   113 r.117                   -1001         -1001               
   114 r.118                 2006.21      -994.076               
   115 r.119                    1001             2               
   116 r.120                   -1001         -1001               
   117 r.121                 3002.34      -992.798               
   118 r.122                    1001             2               
   119 r.123                   -1001         -1001               
   120 r.124                 2000.96      -992.064               
   121 r.125                    1001             2               
   122 r.126                   -1001         -1001               
   123 r.127                 3011.18      -996.406               
   124 r.128                    1001             2               
   125 r.129                   -1001         -1001               
   126 r.130                 2010.83      -995.785               
   127 r.131                    1000             2               
   128 r.132                   -1000         -1001               
   129 r.133                 1996.82      -993.064               
   130 r.134                       2             2               
   131 r.135                      -2         -1001               
   132 r.136                -993.785      -993.785               
   133 r.137                    1001             2               
   134 r.138                   -1001         -1001               
   135 r.139                 2017.07        6.9558               
   136 r.140                    1001             2               
   137 r.141                   -1001         -1001               
   138 r.142                 2001.02        6.2676               
   139 r.143                    1001             2               
   140 r.144                   -1001         -1001               
   141 r.145                 2017.07      -995.114               
   142 r.146                    1001             2               
   143 r.147                   -1001         -1001               
   144 r.148                 2017.07      -995.388               
   145 r.149                       2             2               
   146 r.150                      -2         -1001               
   147 r.151                -987.546      -994.747               
   148 r.152                    1000             2               
   149 r.153                   -1000         -1001               
   150 r.154                 2012.45      -994.076               
   151 r.155                       2             2               
   152 r.156                      -2         -1001               
   153 r.157                -992.798      -992.798               
   154 r.158                    1000             2               
   155 r.159                   -1000         -1001               
   156 r.160                  2007.2      -992.064               
   157 r.161                       2             2               
   158 r.162                      -2         -1001               
   159 r.163                -983.951      -996.406               
   160 r.164                    1000             2               
   161 r.165                   -1000         -1001               
   162 r.166                 2017.07      -995.785               
   163 r.167                    1001             2               
   164 r.168                   -1001         -1001               
   165 r.169                 1001.68      -993.064               
   166 r.170                    1001             2               
   167 r.171                   -1001         -1001               
   168 r.172                 2012.45      -993.785               
   169 r.173                -994.748       -994.84               
   170 r.174                  5.2517      -993.936               
   171 r.175                -994.748       -994.84               
   172 r.176                  5.2517      -993.936               
   173 r.177                    1000             2               
   174 r.178                   -1000         -1001               
   175 r.179                    2000        6.9558               
   176 r.180                       2             2               
   177 r.181                      -2         -1001               
   178 r.182                  983.95        6.2676               
   179 r.183                    1000             2               
   180 r.184                   -1000         -1001               
   181 r.185                 987.797        4.8636               
   182 r.186                       2             2               
   183 r.187                      -2         -1001               
   184 r.188                 989.173        5.2234               
   185 r.189                    1001             2               
   186 r.190                   -1001         -1001               
   187 r.191                 1982.93        5.1602               
   188 r.192                    1001             2               
   189 r.193                   -1001         -1001               
   190 r.194                 1982.93        6.0643               
   191 r.195                  4.6122      -995.114               
   192 r.196                -995.388      -995.388               
   193 r.197                  4.6122      -995.114               
   194 r.198                -995.388      -995.388               
   195 r.199                    1001             2               
   196 r.200                   -1001         -1001               
   197 r.201                 1998.98      -996.406               
   198 r.202                    1001             2               
   199 r.203                   -1001         -1001               
   200 r.204                    2000      -995.785               
   201 r.205                    1000             2               
   202 r.206                   -1000         -1001               
   203 r.207                 984.618      -993.064               
   204 r.208                       2             2               
   205 r.209                      -2         -1001               
   206 r.210                 -4.6122      -993.785               
   207 r.211                    1001             2               
   208 r.212                   -1001         -1001               
   209 r.213                 2004.61        6.9558               
   210 r.214                    1001             2               
   211 r.215                   -1001         -1001               
   212 r.216                 1988.56        6.2676               
   213 r.217                    1001             2               
   214 r.218                   -1001         -1001               
   215 r.219                 992.409        4.8636               
   216 r.220                    1001             2               
   217 r.221                   -1001         -1001               
   218 r.222                 1993.79        5.2234               
   219 r.223                       2             2               
   220 r.224                      -2         -1001               
   221 r.225                 987.546        5.1602               
   222 r.226                    1000             2               
   223 r.227                   -1000         -1001               
   224 r.228                 1987.55        6.0643               
   225 r.229                -994.747      -994.747               
   226 r.230                  5.2526      -994.076               
   227 r.231                -994.747      -994.747               
   228 r.232                  5.2526      -994.076               
   229 r.233                       2             2               
   230 r.234                      -2         -1001               
   231 r.235                -996.406      -996.406               
   232 r.236                    1000             2               
   233 r.237                   -1000         -1001               
   234 r.238                 2004.61      -995.785               
   235 r.239                    1001             2               
   236 r.240                   -1001         -1001               
   237 r.241                  989.23      -993.064               
   238 r.242                    1001             2               
   239 r.243                   -1001         -1001               
   240 r.244                    2000      -993.785               
   241 r.245                    1001             2               
   242 r.246                   -1001         -1001               
   243 r.247                 2009.86        6.9558               
   244 r.248                    1001             2               
   245 r.249                   -1001         -1001               
   246 r.250                 1993.81        6.2676               
   247 r.251                    1001             2               
   248 r.252                   -1001         -1001               
   249 r.253                 997.662        4.8636               
   250 r.254                    1001             2               
   251 r.255                   -1001         -1001               
   252 r.256                 1999.04        5.2234               
   253 r.257                       2             2               
   254 r.258                      -2         -1001               
   255 r.259                 992.798        5.1602               
   256 r.260                    1000             2               
   257 r.261                   -1000         -1001               
   258 r.262                  1992.8        6.0643               
   259 r.263                       2             2               
   260 r.264                      -2         -1001               
   261 r.265                -991.153      -996.406               
   262 r.266                    1000             2               
   263 r.267                   -1000         -1001               
   264 r.268                 2009.86      -995.785               
   265 r.269                    1001             2               
   266 r.270                   -1001         -1001               
   267 r.271                 994.482      -993.064               
   268 r.272                    1001             2               
   269 r.273                   -1001         -1001               
   270 r.274                 2005.25      -993.785               
   271 r.275                -987.547      -992.798               
   272 r.276                 12.4533      -992.064               
   273 r.277                -987.547      -992.798               
   274 r.278                 12.4533      -992.064               
   275 r.279                    1001             2               
   276 r.280                   -1001         -1001               
   277 r.281                 2001.02        6.9558               
   278 r.282                    1001             2               
   279 r.283                   -1001         -1001               
   280 r.284                 1983.95        6.2676               
   281 r.285                    1001             2               
   282 r.286                   -1001         -1001               
   283 r.287                 988.815        4.8636               
   284 r.288                    1001             2               
   285 r.289                   -1001         -1001               
   286 r.290                 1989.17        5.2234               
   287 r.291                       2             2               
   288 r.292                      -2         -1001               
   289 r.293                 983.951        5.1602               
   290 r.294                    1000             2               
   291 r.295                   -1000         -1001               
   292 r.296                 1982.93        6.0643               
   293 r.297                    1001             2               
   294 r.298                   -1001         -1001               
   295 r.299                 2001.02        4.8862               
   296 r.300                    1001             2               
   297 r.301                   -1001         -1001               
   298 r.302                    2000        4.6122               
   299 r.303                       2             2               
   300 r.304                      -2         -1001               
   301 r.305                 996.406        5.2526               
   302 r.306                    1000             2               
   303 r.307                   -1000         -1001               
   304 r.308                 1995.39        5.9238               
   305 r.309                       2             2               
   306 r.310                      -2         -1001               
   307 r.311                 991.153        7.2016               
   308 r.312                    1000             2               
   309 r.313                   -1000         -1001               
   310 r.314                 1990.14        7.9363               
   311 r.315                 14.3646      -996.406               
   312 r.316                 1015.38      -995.785               
   313 r.317                -996.406      -996.406               
   314 r.318                  4.6122      -995.785               
   315 r.319                    1000             2               
   316 r.320                   -1000         -1001               
   317 r.321                 3015.38        6.9558               
   318 r.322                       2             2               
   319 r.323                      -2         -1001               
   320 r.324                 988.562        6.2676               
   321 r.325                    1000             2               
   322 r.326                   -1000         -1001               
   323 r.327                 2003.18        4.8636               
   324 r.328                       2             2               
   325 r.329                      -2         -1001               
   326 r.330                 993.785        5.2234               
   327 r.331                    1001             2               
   328 r.332                   -1001         -1001               
   329 r.333                 2998.32        5.1602               
   330 r.334                    1001             2               
   331 r.335                   -1001         -1001               
   332 r.336                 1987.55        6.0643               
   333 r.337                    1000             2               
   334 r.338                   -1000         -1001               
   335 r.339                 3015.38        4.8862               
   336 r.340                       2             2               
   337 r.341                      -2         -1001               
   338 r.342                  4.6122        4.6122               
   339 r.343                    1001             2               
   340 r.344                   -1001         -1001               
   341 r.345                 3010.77        5.2526               
   342 r.346                    1001             2               
   343 r.347                   -1001         -1001               
   344 r.348                    2000        5.9238               
   345 r.349                    1001             2               
   346 r.350                   -1001         -1001               
   347 r.351                 3005.52        7.2016               
   348 r.352                    1001             2               
   349 r.353                   -1001         -1001               
   350 r.354                 1994.75        7.9363               
   351 r.355                -993.064      -993.064               
   352 r.356                -982.294      -993.785               
   353 r.357                -993.064      -993.064               
   354 r.358                -982.294      -993.785               

   No. Column name       Activity     Lower bound   Upper bound
------ ------------    ------------- ------------- -------------
     1 tt                    23.5151             0               
     2 s_1_9        *              1             0             1 
     3 s_1_1        *              0             0             1 
     4 t_1_1                       0             0               
     5 s_2_1        *              1             0             1 
     6 t_2_1                 16.0505             0               
     7 s_1_2        *              0             0             1 
     8 t_1_2                  1012.2             0               
     9 s_2_2        *              1             0             1 
    10 t_2_2                 10.8271             0               
    11 s_1_3        *              1             0             1 
    12 t_1_3                 17.0664             0               
    13 s_2_3        *              0             0             1 
    14 t_2_3                 17.0664             0               
    15 s_1_4        *              0             0             1 
    16 t_1_4                       0             0               
    17 s_2_4        *              1             0             1 
    18 t_2_4                       0             0               
    19 s_1_5        *              1             0             1 
    20 t_1_5                  4.6122             0               
    21 s_2_5        *              0             0             1 
    22 t_2_5                  4.6122             0               
    23 s_1_6        *              1             0             1 
    24 t_1_6                  9.8648             0               
    25 s_2_6        *              0             0             1 
    26 t_2_6                  9.8648             0               
    27 s_1_7        *              1             0             1 
    28 t_1_7                  1.0178             0               
    29 s_2_7        *              0             0             1 
    30 t_2_7                       0             0               
    31 s_1_8        *              0             0             1 
    32 t_1_8                 1015.38             0               
    33 s_2_8        *              1             0             1 
    34 t_2_8                  4.6122             0               
    35 t_1_9                 22.3181             0               
    36 s_2_9        *              0             0             1 
    37 t_2_9                 22.3181             0               
    38 r_1_1_2      *              1             0             1 
    39 u_1_1_2      *              0             0             1 
    40 r_2_1_2      *              0             0             1 
    41 u_2_1_2      *              1             0             1 
    42 r_1_1_3      *              1             0             1 
    43 u_1_1_3      *              0             0             1 
    44 r_2_1_3      *              1             0             1 
    45 u_2_1_3      *              0             0             1 
    46 r_1_1_4      *              1             0             1 
    47 u_1_1_4      *              0             0             1 
    48 r_2_1_4      *              0             0             1 
    49 u_2_1_4      *              1             0             1 
    50 r_1_1_5      *              1             0             1 
    51 u_1_1_5      *              0             0             1 
    52 r_2_1_5      *              1             0             1 
    53 u_2_1_5      *              0             0             1 
    54 r_1_1_6      *              1             0             1 
    55 u_1_1_6      *              0             0             1 
    56 r_2_1_6      *              1             0             1 
    57 u_2_1_6      *              0             0             1 
    58 r_1_1_7      *              1             0             1 
    59 u_1_1_7      *              0             0             1 
    60 r_2_1_7      *              1             0             1 
    61 u_2_1_7      *              0             0             1 
    62 r_1_1_8      *              1             0             1 
    63 u_1_1_8      *              0             0             1 
    64 r_2_1_8      *              0             0             1 
    65 u_2_1_8      *              1             0             1 
    66 r_1_2_4      *              1             0             1 
    67 u_1_2_4      *              0             0             1 
    68 r_2_2_4      *              0             0             1 
    69 u_2_2_4      *              1             0             1 
    70 r_1_2_5      *              1             0             1 
    71 u_1_2_5      *              0             0             1 
    72 r_2_2_5      *              1             0             1 
    73 u_2_2_5      *              0             0             1 
    74 r_1_2_6      *              1             0             1 
    75 u_1_2_6      *              0             0             1 
    76 r_2_2_6      *              1             0             1 
    77 u_2_2_6      *              0             0             1 
    78 r_1_2_7      *              1             0             1 
    79 u_1_2_7      *              0             0             1 
    80 r_2_2_7      *              1             0             1 
    81 u_2_2_7      *              0             0             1 
    82 r_1_2_8      *              1             0             1 
    83 u_1_2_8      *              0             0             1 
    84 r_2_2_8      *              0             0             1 
    85 u_2_2_8      *              1             0             1 
    86 r_1_3_4      *              1             0             1 
    87 u_1_3_4      *              0             0             1 
    88 r_2_3_4      *              1             0             1 
    89 u_2_3_4      *              0             0             1 
    90 r_1_3_5      *              0             0             1 
    91 u_1_3_5      *              1             0             1 
    92 r_2_3_5      *              1             0             1 
    93 u_2_3_5      *              0             0             1 
    94 r_1_3_6      *              0             0             1 
    95 u_1_3_6      *              1             0             1 
    96 r_2_3_6      *              1             0             1 
    97 u_2_3_6      *              0             0             1 
    98 r_1_3_7      *              0             0             1 
    99 u_1_3_7      *              1             0             1 
   100 r_2_3_7      *              1             0             1 
   101 u_2_3_7      *              0             0             1 
   102 r_1_3_8      *              1             0             1 
   103 u_1_3_8      *              0             0             1 
   104 r_2_3_8      *              1             0             1 
   105 u_2_3_8      *              0             0             1 
   106 r_1_4_7      *              1             0             1 
   107 u_1_4_7      *              0             0             1 
   108 r_2_4_7      *              1             0             1 
   109 u_2_4_7      *              0             0             1 
   110 r_1_4_8      *              1             0             1 
   111 u_1_4_8      *              0             0             1 
   112 r_2_4_8      *              0             0             1 
   113 u_2_4_8      *              0             0             1 
   114 r_1_5_7      *              0             0             1 
   115 u_1_5_7      *              1             0             1 
   116 r_2_5_7      *              1             0             1 
   117 u_2_5_7      *              0             0             1 
   118 r_1_5_8      *              1             0             1 
   119 u_1_5_8      *              0             0             1 
   120 r_2_5_8      *              1             0             1 
   121 u_2_5_8      *              0             0             1 
   122 r_1_6_7      *              0             0             1 
   123 u_1_6_7      *              1             0             1 
   124 r_2_6_7      *              1             0             1 
   125 u_2_6_7      *              0             0             1 
   126 r_1_6_8      *              1             0             1 
   127 u_1_6_8      *              0             0             1 
   128 r_2_6_8      *              1             0             1 
   129 u_2_6_8      *              0             0             1 

Integer feasibility conditions:

KKT.PE: max.abs.err = 4.55e-13 on row 347
        max.rel.err = 7.54e-17 on row 347
        High quality

KKT.PB: max.abs.err = 0.00e+00 on row 0
        max.rel.err = 0.00e+00 on row 0
        High quality

End of output
